#######################



#######################
Set parameter TimeLimit to value 300
Set parameter SoftMemLimit to value 125
Set parameter LogFile to value 1003-TimeLimit300-k16x240-8.log
Set parameter Seed to value 8
Using license file /opt/gurobi/gurobi.lic

Gurobi Optimizer version 10.0.3 build v10.0.3rc0 (linux64)
Copyright (c) 2023, Gurobi Optimization, LLC

Read MPS format model from file /miplib2010/k16x240.mps.bz2
Reading time = 0.00 seconds
k16x240: 256 rows, 480 columns, 960 nonzeros

CPU model: Intel(R) Xeon(R) E-2388G CPU @ 3.20GHz, instruction set [SSE2|AVX|AVX2|AVX512]
Thread count: 8 physical cores, 16 logical processors, using up to 16 threads

Optimize a model with 256 rows, 480 columns and 960 nonzeros
Model fingerprint: 0x4e80885f
Variable types: 240 continuous, 240 integer (240 binary)
Coefficient statistics:
  Matrix range     [1e+00, 1e+03]
  Objective range  [1e+00, 1e+03]
  Bounds range     [1e+00, 1e+03]
  RHS range        [4e+00, 4e+02]
Found heuristic solution: objective 27117.000000
Presolve time: 0.00s
Presolved: 256 rows, 480 columns, 960 nonzeros
Variable types: 240 continuous, 240 integer (240 binary)

Root relaxation: objective 2.769838e+03, 51 iterations, 0.00 seconds (0.00 work units)

    Nodes    |    Current Node    |     Objective Bounds      |     Work
 Expl Unexpl |  Obj  Depth IntInf | Incumbent    BestBd   Gap | It/Node Time

     0     0 2769.83800    0   14 27117.0000 2769.83800  89.8%     -    0s
H    0     0                    11359.000000 2769.83800  75.6%     -    0s
H    0     0                    11195.000000 2769.83800  75.3%     -    0s
H    0     0                    11074.000000 8084.69631  27.0%     -    0s
     0     0 8084.69631    0   26 11074.0000 8084.69631  27.0%     -    0s
H    0     0                    10916.000000 8084.69631  25.9%     -    0s
     0     0 8528.16906    0   24 10916.0000 8528.16906  21.9%     -    0s
H    0     0                    10806.000000 8539.15185  21.0%     -    0s
     0     0 8539.15185    0   34 10806.0000 8539.15185  21.0%     -    0s
     0     0 8548.03675    0   29 10806.0000 8548.03675  20.9%     -    0s
H    0     0                    10779.000000 8548.03675  20.7%     -    0s
     0     0 8733.37944    0   34 10779.0000 8733.37944  19.0%     -    0s
H    0     0                    10717.000000 8733.37944  18.5%     -    0s
     0     0 8793.89382    0   28 10717.0000 8793.89382  17.9%     -    0s
     0     0 8813.48501    0   28 10717.0000 8813.48501  17.8%     -    0s
     0     0 8817.87868    0   34 10717.0000 8817.87868  17.7%     -    0s
H    0     0                    10711.000000 8892.03376  17.0%     -    0s
     0     0 8892.03376    0   39 10711.0000 8892.03376  17.0%     -    0s
     0     0 8923.18565    0   38 10711.0000 8923.18565  16.7%     -    0s
     0     0 8932.49192    0   38 10711.0000 8932.49192  16.6%     -    0s
     0     0 8940.40327    0   38 10711.0000 8940.40327  16.5%     -    0s
     0     0 8943.68869    0   40 10711.0000 8943.68869  16.5%     -    0s
     0     0 9044.39461    0   32 10711.0000 9044.39461  15.6%     -    0s
     0     0 9053.91635    0   30 10711.0000 9053.91635  15.5%     -    0s
     0     0 9056.27090    0   34 10711.0000 9056.27090  15.4%     -    0s
     0     0 9089.86017    0   37 10711.0000 9089.86017  15.1%     -    0s
     0     0 9089.86017    0   37 10711.0000 9089.86017  15.1%     -    0s
     0     2 9094.90389    0   37 10711.0000 9094.90389  15.1%     -    0s
H   68    72                    10681.000000 9154.86554  14.3%  34.1    0s
H  183   196                    10674.000000 9154.86554  14.2%  23.6    0s
 35676 12615     cutoff   32      10674.0000 10033.4747  6.00%  23.3    5s
 77699 18753     cutoff   33      10674.0000 10211.7658  4.33%  24.6   10s
 119932 17503     cutoff   31      10674.0000 10357.3884  2.97%  25.2   15s
 160563  5186     cutoff   40      10674.0000 10525.5272  1.39%  24.9   20s

Cutting planes:
  Gomory: 3
  Lift-and-project: 11
  Cover: 81
  Implied bound: 30
  MIR: 193
  Flow cover: 320
  Flow path: 48
  Inf proof: 3
  Zero half: 12
  Network: 55
  Relax-and-lift: 7

Explored 169733 nodes (4127608 simplex iterations) in 20.69 seconds (25.28 work units)
Thread count was 16 (of 16 available processors)

Solution count 10: 10674 10681 10711 ... 11359

Optimal solution found (tolerance 1.00e-04)
Best objective 1.067400000000e+04, best bound 1.067400000000e+04, gap 0.0000%
